SECTION Graph
Nodes 435
Edges 818
E 1 396 47
E 3 8 3
E 3 101 4
E 3 388 1
E 3 397 9
E 4 101 1
E 4 393 3
E 4 395 1
E 4 399 9
E 5 388 9
E 5 396 1
E 5 397 1
E 6 395 9
E 6 399 1
E 7 9 1
E 7 380 4
E 7 385 12
E 8 385 1
E 8 386 1
E 8 391 4
E 9 10 12
E 9 11 1
E 10 12 1
E 10 385 1
E 10 386 1
E 11 12 12
E 12 384 1
E 13 18 7
E 13 377 1
E 13 378 1
E 13 379 6
E 14 379 5
E 14 382 1
E 15 377 6
E 15 379 1
E 15 382 5
E 16 378 6
E 16 379 1
E 17 22 25
E 17 372 1
E 17 373 1
E 17 374 5
E 18 374 6
E 18 375 1
E 18 376 1
E 19 372 5
E 19 374 1
E 19 375 6
E 20 373 5
E 20 374 1
E 20 376 6
E 21 354 7
E 21 356 1
E 21 358 1
E 21 359 2
E 22 362 6
E 22 364 1
E 22 367 1
E 23 356 5
E 23 362 1
E 23 364 6
E 24 360 3
E 24 362 1
E 24 367 6
E 25 348 6
E 25 353 1
E 25 357 6
E 26 357 5
E 26 361 1
E 26 363 1
E 26 366 7
E 27 351 10
E 27 353 6
E 27 357 1
E 27 361 5
E 28 350 12
E 28 357 1
E 28 363 5
E 29 35 1
E 29 41 4
E 29 324 1
E 29 332 12
E 30 332 1
E 30 336 1
E 31 32 1
E 31 228 5
E 31 242 1
E 31 276 12
E 32 34 12
E 32 56 5
E 33 242 12
E 33 276 1
E 34 276 1
E 35 36 12
E 35 37 1
E 35 40 4
E 36 38 1
E 36 332 1
E 37 38 12
E 37 319 4
E 39 308 2
E 39 311 1
E 39 320 15
E 39 324 16
E 40 41 1
E 40 317 2
E 40 319 1
E 41 318 2
E 41 321 4
E 42 43 10
E 42 296 4
E 42 299 2
E 42 306 2
E 43 312 4
E 43 315 2
E 43 316 2
E 44 310 5
E 44 312 2
E 44 316 4
E 45 264 2
E 45 269 1
E 45 279 3
E 45 294 10
E 46 47 1
E 46 288 3
E 46 289 2
E 47 292 2
E 47 298 1
E 48 49 10
E 48 246 4
E 48 253 2
E 48 265 3
E 49 274 4
E 49 288 2
E 49 289 3
E 50 266 5
E 50 274 2
E 50 288 4
E 51 212 2
E 51 216 1
E 51 231 6
E 51 245 10
E 52 53 1
E 52 234 3
E 52 237 2
E 53 241 2
E 53 250 1
E 54 200 2
E 54 203 1
E 54 213 3
E 54 227 10
E 55 221 2
E 55 228 1
E 55 242 5
E 56 225 2
E 56 228 1
E 56 234 1
E 57 263 6
E 57 275 2
E 57 283 1
E 57 285 2
E 58 285 10
E 58 301 2
E 58 307 1
E 58 310 2
E 59 180 23
E 59 212 6
E 59 231 2
E 59 240 5
E 60 231 10
E 60 245 6
E 60 266 2
E 60 274 5
E 61 63 3
E 61 188 1
E 61 190 2
E 62 193 10
E 62 217 1
E 62 221 2
E 63 184 2
E 64 184 10
E 64 217 3
E 65 303 1
E 65 313 5
E 66 313 6
E 66 314 1
E 66 322 8
E 67 284 15
E 67 303 5
E 67 313 1
E 67 314 6
E 68 313 1
E 68 325 14
E 69 70 2
E 69 155 20
E 69 181 1
E 69 198 9
E 70 159 20
E 70 185 1
E 70 205 9
E 71 205 6
E 71 215 2
E 71 220 1
E 71 233 6
E 72 181 9
E 72 189 3
E 72 198 1
E 72 211 6
E 73 185 9
E 73 205 1
E 73 219 4
E 73 220 6
E 74 161 1
E 74 174 10
E 75 76 1
E 75 168 3
E 75 172 2
E 75 210 20
E 76 173 2
E 76 177 1
E 76 214 20
E 77 78 10
E 77 147 4
E 77 158 3
E 78 165 4
E 78 168 2
E 78 172 3
E 79 162 4
E 79 165 2
E 79 168 4
E 79 194 20
E 80 131 2
E 80 134 1
E 80 136 3
E 80 145 10
E 81 82 1
E 81 141 3
E 81 143 2
E 81 175 20
E 82 144 2
E 82 149 1
E 82 176 20
E 83 84 10
E 83 126 4
E 83 128 2
E 83 132 3
E 84 135 4
E 84 141 2
E 84 143 3
E 85 133 5
E 85 135 2
E 85 141 4
E 85 167 20
E 86 113 2
E 86 115 1
E 86 120 6
E 86 125 10
E 87 88 1
E 87 121 3
E 87 122 2
E 87 146 20
E 88 124 2
E 88 127 1
E 88 148 20
E 89 109 2
E 89 110 1
E 89 114 3
E 89 119 10
E 90 91 2
E 90 117 2
E 91 118 2
E 91 121 1
E 91 139 20
E 92 131 6
E 92 138 2
E 93 138 10
E 93 152 2
E 93 157 1
E 93 159 2
E 94 113 6
E 94 120 2
E 94 123 5
E 95 120 10
E 95 125 6
E 95 133 2
E 95 135 5
E 96 98 3
E 96 103 1
E 96 104 2
E 97 106 10
E 97 116 1
E 97 117 2
E 98 102 2
E 99 102 10
E 99 116 3
E 100 371 163
E 101 391 3
E 101 398 9
E 102 104 3
E 103 105 2
E 103 106 2
E 104 106 1
E 104 116 10
E 105 107 2
E 105 108 2
E 106 108 2
E 107 109 1
E 107 110 2
E 108 110 2
E 108 117 10
E 109 111 3
E 110 118 10
E 111 112 1
E 111 114 2
E 112 113 1
E 112 115 2
E 114 115 1
E 114 122 10
E 115 124 10
E 117 118 2
E 118 119 1
E 119 121 2
E 119 122 3
E 120 126 5
E 121 142 20
E 122 124 1
E 123 126 2
E 123 128 4
E 124 125 1
E 125 127 2
E 126 135 10
E 127 133 6
E 127 150 20
E 128 129 3
E 129 130 1
E 129 132 2
E 130 131 1
E 130 134 2
E 132 134 1
E 132 143 10
E 133 160 20
E 134 144 10
E 136 137 1
E 136 151 10
E 137 138 2
E 137 152 10
E 138 140 1
E 139 142 1
E 139 154 9
E 140 147 4
E 140 157 10
E 141 169 20
E 142 146 3
E 142 156 9
E 143 144 1
E 144 145 1
E 145 149 2
E 145 151 3
E 146 148 1
E 146 163 9
E 147 165 10
E 148 150 1
E 148 164 9
E 149 153 3
E 149 178 20
E 150 160 6
E 150 166 9
E 151 152 1
E 151 153 2
E 152 155 2
E 153 155 1
E 153 181 20
E 154 156 1
E 154 196 29
E 155 159 2
E 156 163 3
E 156 200 29
E 157 162 2
E 157 165 4
E 158 161 1
E 158 172 10
E 159 162 1
E 160 167 5
E 160 170 9
E 161 173 10
E 162 185 20
E 163 164 1
E 163 207 29
E 164 166 1
E 164 209 29
E 166 170 6
E 166 171 6
E 167 169 4
E 167 179 9
E 168 204 20
E 169 175 3
E 169 182 9
E 170 179 5
E 170 180 6
E 171 180 6
E 171 212 23
E 172 173 1
E 173 174 1
E 174 177 2
E 175 176 1
E 175 186 9
E 176 178 1
E 176 187 9
E 177 218 20
E 178 181 3
E 178 189 9
E 179 182 4
E 179 183 6
E 180 183 5
E 182 186 3
E 182 191 6
E 183 191 4
E 183 240 23
E 184 190 3
E 185 194 4
E 186 187 1
E 186 199 6
E 187 189 1
E 187 202 6
E 188 192 2
E 188 193 2
E 189 206 6
E 190 193 1
E 190 217 10
E 191 199 3
E 191 253 23
E 192 195 1
E 192 197 2
E 193 197 2
E 194 204 4
E 194 219 9
E 195 196 1
E 195 201 2
E 196 200 1
E 196 203 2
E 197 201 1
E 197 221 10
E 198 205 2
E 198 215 6
E 199 202 1
E 199 259 23
E 200 207 3
E 201 203 1
E 201 222 10
E 202 206 1
E 202 261 23
E 203 225 10
E 204 208 2
E 204 223 9
E 206 211 3
E 206 264 23
E 207 209 1
E 207 213 2
E 208 210 1
E 208 229 9
E 209 212 1
E 209 216 2
E 210 214 1
E 210 232 9
E 211 215 1
E 211 224 6
E 213 216 1
E 213 237 10
E 214 218 1
E 214 235 9
E 215 226 6
E 216 241 10
E 218 238 9
E 219 223 4
E 219 230 6
E 220 230 4
E 220 236 6
E 221 222 1
E 222 225 1
E 222 228 2
E 223 229 2
E 223 243 6
E 224 226 1
E 224 239 5
E 225 227 1
E 226 233 2
E 226 244 5
E 227 234 2
E 227 237 3
E 229 232 1
E 229 247 6
E 230 243 4
E 230 248 6
E 231 246 5
E 232 235 1
E 232 251 6
E 233 236 1
E 233 249 5
E 235 238 1
E 235 254 6
E 236 248 4
E 236 252 5
E 237 241 1
E 238 255 6
E 239 244 1
E 239 256 6
E 240 246 2
E 240 253 4
E 241 245 1
E 243 247 2
E 243 257 6
E 244 249 2
E 244 258 6
E 245 250 2
E 246 274 10
E 247 251 1
E 247 262 6
E 248 257 4
E 248 260 5
E 249 252 1
E 249 263 6
E 250 266 6
E 251 254 1
E 251 267 6
E 252 260 4
E 252 268 6
E 253 259 3
E 254 255 1
E 254 270 6
E 255 271 6
E 256 258 1
E 256 273 6
E 257 262 2
E 257 272 5
E 258 263 2
E 258 275 6
E 259 261 1
E 259 265 2
E 260 272 4
E 260 278 6
E 261 264 1
E 261 269 2
E 262 267 1
E 262 277 5
E 263 268 1
E 264 273 3
E 265 269 1
E 265 289 10
E 267 270 1
E 267 280 5
E 268 278 4
E 268 283 6
E 269 292 10
E 270 271 1
E 270 282 5
E 271 284 5
E 271 303 15
E 272 277 2
E 272 286 6
E 273 275 1
E 273 279 2
E 275 281 2
E 277 280 1
E 277 290 6
E 278 286 4
E 278 291 6
E 279 281 1
E 279 300 10
E 280 282 1
E 280 293 6
E 281 285 2
E 281 301 10
E 282 284 1
E 282 295 6
E 283 287 2
E 283 291 4
E 284 297 6
E 285 287 1
E 286 290 2
E 286 299 6
E 287 296 4
E 287 307 10
E 289 292 1
E 290 293 1
E 290 302 6
E 291 296 2
E 291 299 4
E 292 294 1
E 293 295 1
E 293 304 6
E 294 298 2
E 294 300 3
E 295 297 1
E 295 305 6
E 296 312 10
E 297 308 6
E 297 314 15
E 298 310 6
E 299 302 2
E 300 301 1
E 302 304 1
E 302 306 2
E 304 305 1
E 304 309 2
E 305 308 1
E 305 311 2
E 306 309 1
E 306 315 10
E 307 312 4
E 309 311 1
E 309 317 10
E 311 318 10
E 314 320 8
E 315 317 1
E 315 319 2
E 316 319 2
E 317 318 1
E 318 328 16
E 320 322 1
E 320 328 10
E 321 323 1
E 321 326 4
E 322 325 1
E 322 329 10
E 323 327 4
E 323 331 11
E 324 326 3
E 324 334 12
E 325 330 10
E 326 327 1
E 326 340 19
E 327 337 11
E 327 341 19
E 328 329 1
E 328 331 2
E 329 330 1
E 329 333 2
E 330 335 2
E 331 333 1
E 331 337 4
E 332 334 1
E 333 335 1
E 333 338 4
E 334 336 1
E 334 343 15
E 335 339 4
E 336 340 9
E 336 345 15
E 337 338 1
E 337 343 12
E 338 339 1
E 338 344 12
E 339 347 12
E 340 341 1
E 340 346 6
E 341 342 1
E 341 349 6
E 342 351 6
E 342 353 10
E 343 344 1
E 343 345 1
E 344 347 1
E 344 348 1
E 345 348 1
E 345 353 6
E 346 349 1
E 346 352 5
E 347 350 1
E 348 350 1
E 349 351 1
E 349 354 5
E 351 355 5
E 352 354 1
E 352 356 7
E 354 355 1
E 355 358 7
E 355 361 10
E 358 360 2
E 358 365 10
E 359 360 1
E 359 362 3
E 360 369 10
E 361 365 7
E 363 368 7
E 364 372 25
E 365 366 1
E 365 369 2
E 366 368 1
E 366 370 2
E 367 373 25
E 368 371 2
E 369 370 1
E 370 371 1
E 375 377 7
E 376 378 7
E 380 381 1
E 380 389 12
E 381 383 1
E 381 390 12
E 382 383 12
E 383 392 12
E 384 386 1
E 384 387 3
E 385 389 4
E 386 388 3
E 387 388 1
E 387 396 9
E 389 390 1
E 389 391 1
E 390 392 1
E 390 393 1
E 391 393 1
E 392 394 1
E 393 394 1
E 394 395 3
E 397 398 4
E 398 399 1
E 1 400 100000
E 2 400 100000
E 3 401 100000
E 4 401 100000
E 5 401 100000
E 6 401 100000
E 7 402 100000
E 8 402 100000
E 9 403 100000
E 10 403 100000
E 11 404 100000
E 12 404 100000
E 13 405 100000
E 14 405 100000
E 15 405 100000
E 16 405 100000
E 17 406 100000
E 18 406 100000
E 19 406 100000
E 20 406 100000
E 21 407 100000
E 22 407 100000
E 23 407 100000
E 24 407 100000
E 25 408 100000
E 26 408 100000
E 27 408 100000
E 28 408 100000
E 29 409 100000
E 30 409 100000
E 31 410 100000
E 32 410 100000
E 33 410 100000
E 34 410 100000
E 35 411 100000
E 36 411 100000
E 37 412 100000
E 38 412 100000
E 39 413 100000
E 40 413 100000
E 41 413 100000
E 42 414 100000
E 43 414 100000
E 44 414 100000
E 45 415 100000
E 46 415 100000
E 47 415 100000
E 48 416 100000
E 49 416 100000
E 50 416 100000
E 51 417 100000
E 52 417 100000
E 53 417 100000
E 54 418 100000
E 55 418 100000
E 56 418 100000
E 57 419 100000
E 58 419 100000
E 59 420 100000
E 60 420 100000
E 61 421 100000
E 62 421 100000
E 63 422 100000
E 64 422 100000
E 65 423 100000
E 66 423 100000
E 67 423 100000
E 68 423 100000
E 69 424 100000
E 70 424 100000
E 71 424 100000
E 72 424 100000
E 73 424 100000
E 74 425 100000
E 75 425 100000
E 76 425 100000
E 77 426 100000
E 78 426 100000
E 79 426 100000
E 80 427 100000
E 81 427 100000
E 82 427 100000
E 83 428 100000
E 84 428 100000
E 85 428 100000
E 86 429 100000
E 87 429 100000
E 88 429 100000
E 89 430 100000
E 90 430 100000
E 91 430 100000
E 92 431 100000
E 93 431 100000
E 94 432 100000
E 95 432 100000
E 96 433 100000
E 97 433 100000
E 98 434 100000
E 99 434 100000
E 100 435 100000
E 101 401 100000
END

SECTION Terminals
Terminals 36
T 400
T 401
T 402
T 403
T 404
T 405
T 406
T 407
T 408
T 409
T 410
T 411
T 412
T 413
T 414
T 415
T 416
T 417
T 418
T 419
T 420
T 421
T 422
T 423
T 424
T 425
T 426
T 427
T 428
T 429
T 430
T 431
T 432
T 433
T 434
T 435
END

EOF
